
%FILE DATA:	Soccer Computational Problem for MiniZinc Models	%
%AUTHOR:	Jack Wall	%
%CONTACT:  	116397063@umail.ucc.ie			%
%LAST UPDATE:	03/03/2020, 16:21:29						%
%DESCRIPTION: 	60 games played with 30 games left				%


n=10; %number of teams

%Games to play
games=[|3,2|7,6|9,1|4,10|9,2|7,3|3,9|1,10|7,1|9,8|5,10|8,5|2,6|3,10|5,4|6,1|4,2|9,6|6,10|2,8|4,1|9,5|9,7|1,9|7,8|8,9|10,7|2,3|3,7|6,4|];

%Initial points
iPoints=[13,20,22,18,16,18,9,24,4,19];

%POSITION CONSTRAINTS
% [|teamID, operator, position|...]
% operators index:
%  1 for =  operator
%  2 for >  operator
%  3 for >= operator
%  4 for <  operator
%  5 for <= operator
positionConstraints=[|8,5,1|2,5,2|];